20
34
5
77
68
54
21
89
0 7
0 8
0 12
0 16
1 2
1 14
1 16
2 12
3 6
3 7
3 10
3 19
4 9
5 8
5 9
5 10
5 11
6 7
6 9
6 11
6 13
7 10
7 16
7 19
9 14
10 11
10 14
10 17
11 12
11 18
11 19
12 13
12 18
15 17
4 17 12 13
10 2 9 16
11 19 3 8
15 1 7 0
14 5 6 18
